Route #1: 48 35 16 27 52 1 25
Route #2: 45 41 42 29 37 24 6 53
Route #3: 47 39 21 26 4 15 7 19
Route #4: 18 10 17 14 44 51 28 8 46
Route #5: 43 23 50 22 38 9 12 5 40
Route #6: 2 30 34 54 31 20 55 11 33 49 13
Route #7: 36 32 3
Cost 720